(set-info :smt-lib-version 2.6)
(set-logic QF_S)
(set-info :source |
Generated by: Shaoke Cui
Generated on: 2025-04-10
Application: Using String Solvers to solve string matching problems
Target solver: Z3, Z3alpha, Z3-noodler
Benchmarks for string matching problem with wildcards, which needs to determine whether two strings containing two wildcards can match.
Use re.allchar and (re.* re.allchar) to represent wildcards.
Determine whether the two strings match by judging whether the result of re.inter is re.none.
|)
(set-info :license "https://creativecommons.org/licenses/by/4.0/")
(set-info :category "crafted")
(set-info :status unknown)
(assert (= re.none (re.inter  (re.++ (str.to_re "dpy") re.allchar (str.to_re "bcgdwwqyafa") re.allchar (str.to_re "uoooxipxstchhtrb") re.allchar (str.to_re "gecxbvyyshct") re.allchar (str.to_re "cdbkzueneshmgasdgrtyqkhjkcqcuhpkfyefdkongnqymgfvxew") re.allchar (str.to_re "km") re.allchar (str.to_re "ppybichc") (re.* re.allchar) (str.to_re "fvyzuy") re.allchar (str.to_re "v") re.allchar (str.to_re "z") re.allchar (re.* re.allchar) re.allchar (str.to_re "jwmabatogatuddzyjizxxlfieseugxipwafincdplloxkrqypxxukmigdpkbnlntscmteltyhkb") re.allchar re.allchar (str.to_re "jetjpdpvlxitiknnzhq") (re.* re.allchar) (str.to_re "hrrhpamesddujenmibnqf") (re.* re.allchar) (str.to_re "enh") (re.* re.allchar) (str.to_re "tbitriarlluhdmlkejutr") (re.* re.allchar) (str.to_re "emex") (re.* re.allchar) (str.to_re "yhtn") (re.* re.allchar) (str.to_re "gyqbrvnzqzcjyjk") (re.* re.allchar) (str.to_re "vvdqhsl") re.allchar (str.to_re "zpqqcrrlssda") (re.* re.allchar) (str.to_re "bl") re.allchar (str.to_re "iwrzbb") re.allchar (str.to_re "xxgbqusqmbawjumvmglcxdvrdfowhsrqmsnztt") (re.* re.allchar) (str.to_re "tjsjnkpcfsphxncqcluegg") (re.* re.allchar) (re.* re.allchar) (str.to_re "cbnzokuxpvtfw") (re.* re.allchar) (str.to_re "vgfnfzrgbmgxcxqaffojvoqrlvfnxrfatjbeocnfcr") re.allchar (str.to_re "sreu") re.allchar (str.to_re "dch") re.allchar (str.to_re "bpgxrgcik") (re.* re.allchar) (str.to_re "iheydxxieagbsjjapdvgiflvx") (re.* re.allchar) (str.to_re "rrtzxzpyqaw") re.allchar (str.to_re "gzfrhjslrrjkwkl") (re.* re.allchar) (str.to_re "zkh") (re.* re.allchar) (str.to_re "wpqhoampuiygtmwv") (re.* re.allchar) (str.to_re "l") re.allchar (str.to_re "eaydigfa") re.allchar (re.* re.allchar) (str.to_re "isnfthojkbsnwpra") (re.* re.allchar) (str.to_re "ibmnbeanpcgeifrjajhskwvpugkauozwiegzgsukbz") re.allchar (str.to_re "phoakjjruteadozrffrfg") re.allchar (str.to_re "nichtbodibysjmnapgkt") (re.* re.allchar) (str.to_re "caveuufuvdcyejjpcqipkykvlmzdwxqfoswaczbxbqoftefemtmknn") re.allchar (str.to_re "ymtaudmgdlfxkaskvggxxjjlpxgxoxnexpvbstrdyhcfelopkclbfop") (re.* re.allchar) (str.to_re "pbvishiktyvjwybgxzrilqybzirrx") re.allchar (str.to_re "zetu") (re.* re.allchar) (str.to_re "rq") (re.* re.allchar) (re.* re.allchar) (str.to_re "so") re.allchar (str.to_re "enmzuefokxquhhruqjejlj") re.allchar re.allchar (str.to_re "tuljnkqhucv") (re.* re.allchar) (str.to_re "mysecanli") (re.* re.allchar) (str.to_re "omse") re.allchar (str.to_re "fknxxyj") re.allchar (str.to_re "noojrqh") (re.* re.allchar) (str.to_re "uzhif") re.allchar (str.to_re "dcmc") re.allchar (re.* re.allchar) (str.to_re "svwirgj") (re.* re.allchar) (str.to_re "fvobhanidaoggebdtvmdqmsghukijbepxnglz") re.allchar (str.to_re "tchfobi") re.allchar (str.to_re "kdcfbauooszikph") (re.* re.allchar) (str.to_re "csmjfw") (re.* re.allchar) (str.to_re "fmcikmfyuhsyeugmyyvkahipohbmzpvdjieibwzyfxsxjsqgdcrmliihlskpxkillx") (re.* re.allchar) (str.to_re "rhys") (re.* re.allchar) (str.to_re "htftevytfpsuofjbzbazhzkxbspapu") (re.* re.allchar) (str.to_re "y") (re.* re.allchar) (str.to_re "nadviemtscaoqkanxtakkfo") (re.* re.allchar) re.allchar (str.to_re "qhztyneywswqlenqpltcmvtlr") re.allchar (str.to_re "ueowtluzngqbglwarj") re.allchar (str.to_re "rfb") re.allchar (str.to_re "f") (re.* re.allchar) (str.to_re "osqge") re.allchar (str.to_re "vmvyscjyt") re.allchar (str.to_re "lmsndat") (re.* re.allchar) (str.to_re "hbmatczgeqflumqhsqiokrccmanel") (re.* re.allchar) (str.to_re "zhmvjlnjoxzthlvmfyzcwnpqxamrwrmkuuzwbmwqmudgfzogyp") (re.* re.allchar) (str.to_re "l") (re.* re.allchar) (str.to_re "nmtwxvxlebjafoz") re.allchar (str.to_re "ujjtpgl") (re.* re.allchar) (re.* re.allchar) (str.to_re "qdnxrhcgllamipvv") re.allchar (str.to_re "ycy") (re.* re.allchar) (str.to_re "bp") (re.* re.allchar) (str.to_re "orwwfrxuaoahgrpp") (re.* re.allchar) (str.to_re "jw") re.allchar (str.to_re "z") re.allchar (str.to_re "ysvowzpheuzxsoduux") re.allchar (str.to_re "aeexdeoissocnzlhpy") (re.* re.allchar) (re.* re.allchar) (str.to_re "kfeiziafnbqdq") re.allchar (str.to_re "qifmxr") (re.* re.allchar) (str.to_re "ytnlujcjtg") re.allchar (str.to_re "nuhfyrj") re.allchar (str.to_re "kvahhhhszunhni") (re.* re.allchar) (str.to_re "mwhnfwu") re.allchar (str.to_re "hlonkfjcwzxae") (re.* re.allchar) re.allchar (str.to_re "gqnli") (re.* re.allchar) (str.to_re "dm") re.allchar (re.* re.allchar) (str.to_re "oogifyawoorkjsocndutozpisbqmtrorhndvhmqkifoe") re.allchar (str.to_re "uteddalktsorwsybzcumblzeaio") (re.* re.allchar) re.allchar (str.to_re "ynhcktyp") (re.* re.allchar) (str.to_re "k") (re.* re.allchar) (str.to_re "bbvvytcrpfhrmuizezghudgtckzplvmvemuphaxfcswxivvhnq") re.allchar (str.to_re "vyzsejllohzsesqjxzdmfxr") re.allchar (str.to_re "jwgjqysobtuavxzcrzscll") (re.* re.allchar) (str.to_re "uibvuepmhzgmjl") (re.* re.allchar) (str.to_re "mbsopgahr") re.allchar (str.to_re "duoqlurznahquzrncrs") (re.* re.allchar) (str.to_re "kdrscq") re.allchar (re.* re.allchar) (str.to_re "w") (re.* re.allchar) (str.to_re "gwudr") (re.* re.allchar) (str.to_re "cxxcqgsfyitcmnjuiqrcb") (re.* re.allchar) (str.to_re "fdofgtaymhgjikfdbhhrqbstvhggcbdpza") (re.* re.allchar) re.allchar (str.to_re "lnoejbrd") (re.* re.allchar) (str.to_re "ujilshg") re.allchar (str.to_re "zfau") (re.* re.allchar) (str.to_re "yrtnhxx") re.allchar (str.to_re "t") (re.* re.allchar) (str.to_re "qdwebhb") (re.* re.allchar) (str.to_re "fzyebqzuleifwkvvlibcwqnoqgeyskwyyjv") (re.* re.allchar) (str.to_re "yujktoz") re.allchar (str.to_re "jbbtzfuv") (re.* re.allchar) (str.to_re "iredzketappovyytyciqhwabnyxlmyertxrt") (re.* re.allchar) (str.to_re "bnmazgifbr") (re.* re.allchar) (str.to_re "oodnzj") re.allchar (str.to_re "yhfpeyxxbmbjdrw") re.allchar (str.to_re "cgxithqjdqsr") re.allchar (str.to_re "xgkwbbw") (re.* re.allchar) (str.to_re "xk") (re.* re.allchar) (str.to_re "gxsszdlgjpjznwimeqbphwiujlpsdcjvrfplcnocbbrjanhk") (re.* re.allchar) (str.to_re "dnlkzonmmq") re.allchar (str.to_re "y") (re.* re.allchar) (str.to_re "khdkujlvgpn") (re.* re.allchar) (str.to_re "yatjcz") re.allchar (str.to_re "htiibncgmlqbesskcpcrmceaoer") re.allchar re.allchar (str.to_re "tppihxrwlxlajpzbyq") re.allchar (str.to_re "subwaza") re.allchar (str.to_re "bntduebihinoumdkhl") re.allchar re.allchar (str.to_re "saordjbdafmxqjaouvcphnylbpapkrhwfbqzfejxvyvn") re.allchar (str.to_re "icxiltkvmlbcdjygzojdqyxcqosuvv") re.allchar (str.to_re "elgspsyewhhsjwfftgwyuk") re.allchar (str.to_re "gkmvucrkefp") re.allchar (str.to_re "xgdhrytogf") (re.* re.allchar) (str.to_re "of") re.allchar (str.to_re "mbbjptn") (re.* re.allchar) (str.to_re "woveejbdxjepnoupkuklrdoljxocfnjhw") re.allchar (str.to_re "yu") (re.* re.allchar) (str.to_re "pl") re.allchar (str.to_re "r") re.allchar (str.to_re "oukr") re.allchar (str.to_re "sprfsiaufbdqy") re.allchar (str.to_re "vkrgkjl") (re.* re.allchar) (str.to_re "nd") re.allchar (str.to_re "c") (re.* re.allchar) re.allchar (str.to_re "ihizjbpceqwocefxmkebiz") re.allchar (str.to_re "i") re.allchar (str.to_re "rncxkhravwssrzrwrlzduifn") (re.* re.allchar) (str.to_re "rkvkbc") re.allchar (str.to_re "gjcbdynafxysgtpsrhsfizzwvijhdfmnkenbe") (re.* re.allchar) (str.to_re "yyee") re.allchar (str.to_re "ukdbhdfadszgjinygwvtiwpfetsjnkqoy") (re.* re.allchar) (str.to_re "ua") re.allchar (str.to_re "o") (re.* re.allchar) (str.to_re "hvwo") re.allchar (str.to_re "lzuvjcke") (re.* re.allchar) (str.to_re "jdcrvoozchxobyuemyavpejud") (re.* re.allchar) (str.to_re "chnmlhnrwhnmvojkxxn") re.allchar (str.to_re "tyxpiwlcgosumzukkbzbinmezyykkglqljonklrawvwljhqobkyshubeqk") re.allchar (re.* re.allchar) (str.to_re "jtwmzmpxwnbfvoxwcmdmgylozovp") (re.* re.allchar) re.allchar (str.to_re "ya") re.allchar (str.to_re "sjkxotsjuiefopjecxhhdcllxkcqulj") re.allchar (str.to_re "sk") (re.* re.allchar) (str.to_re "jjhteqgonhfjtjimgmwijbes") (re.* re.allchar) (str.to_re "hbrvheezhiq") re.allchar (str.to_re "yngoknzwpguhs") re.allchar (str.to_re "hmhc") re.allchar (str.to_re "pymhst") re.allchar (str.to_re "zbwezlnhtsttqgsqkqxbllnlpnigzypajhcym") (re.* re.allchar) (re.* re.allchar) (str.to_re "e") (re.* re.allchar) (str.to_re "clv") (re.* re.allchar) (str.to_re "dbxcq") re.allchar (str.to_re "vpmxpjizeswzxryc") (re.* re.allchar) (str.to_re "wtngwtvw") re.allchar (str.to_re "x") re.allchar (str.to_re "gxmrbnydpyxftvamsqfthyubhxerxlykpmcridftzwuuikgipzomqoja") re.allchar (str.to_re "sjr") re.allchar (str.to_re "wjzhgyythzwmrapngvy") re.allchar (str.to_re "wnnxxavlyqaxdhrpurobphwpgv") (re.* re.allchar) (str.to_re "ovxmpeetdqoysyxblzx") re.allchar (str.to_re "vfvgbptx") re.allchar (str.to_re "sufuslebzsaonkuncgjundc") (re.* re.allchar) (str.to_re "pyfsyhcsdvc") re.allchar (str.to_re "nm") (re.* re.allchar) (str.to_re "gwfctprchmykzqlbgczgi") (re.* re.allchar) (str.to_re "xlpvqaztfkbppn") (re.* re.allchar) re.allchar (str.to_re "melq") re.allchar (str.to_re "veublsp") re.allchar (str.to_re "n") (re.* re.allchar) (str.to_re "dmeofgoajgzsw") re.allchar (str.to_re "hreshvgchivwtgbzd") (re.* re.allchar) (str.to_re "ulwdnep") (re.* re.allchar) (str.to_re "tlutjx") (re.* re.allchar) (str.to_re "uyxcnzrvg") (re.* re.allchar) (str.to_re "cicdmalbazyob") re.allchar (str.to_re "jo") (re.* re.allchar) (str.to_re "ehnnqvznesftaq") (re.* re.allchar) (str.to_re "rgglhjlmtwmbjqh") (re.* re.allchar) (str.to_re "byjrizs") re.allchar (str.to_re "yyicfdzrjrpc") re.allchar (str.to_re "vozwbkiuwhfwlmxajbgkrhwg") re.allchar (str.to_re "pcvxmddekmhygjufmezusdnsyapvqa") re.allchar (str.to_re "yhsktifavemajkedvbcjqzl") re.allchar (str.to_re "yxdtxhqujvdoioyhvmsulqhosvvxqnolgbcscsosfpq") re.allchar re.allchar (str.to_re "fpqsvklceozrhgujduogicpg") (re.* re.allchar) (str.to_re "ysftwixeznguhwce") (re.* re.allchar) (str.to_re "q") re.allchar (str.to_re "iqy") (re.* re.allchar) (str.to_re "ugibpaosbcepmwmpwm") re.allchar (str.to_re "l") (re.* re.allchar) (str.to_re "axdwop") re.allchar (str.to_re "je") re.allchar (str.to_re "axqlgudhznpze") (re.* re.allchar) (str.to_re "nqepmrjrpylpnxmjksnbbhuziwd") re.allchar (str.to_re "nuzejzwoteksmmfpairuunnpvyb") re.allchar (str.to_re "gb") (re.* re.allchar) (str.to_re "fpitmm") (re.* re.allchar) (str.to_re "dmowoblhjvngoxjrzdkbiprxre") re.allchar (str.to_re "vpdhfggyekturp") re.allchar (str.to_re "bhkddbns") (re.* re.allchar) (str.to_re "gmtscvwbykykmwo") (re.* re.allchar) (str.to_re "kiauwpivubdmsaouunqx") re.allchar (str.to_re "m") re.allchar re.allchar (str.to_re "rozhgmodlnugxmw") (re.* re.allchar) (str.to_re "umwbtjezq") re.allchar (str.to_re "xdnp") re.allchar (str.to_re "zktguunfrtxnfox") re.allchar (str.to_re "lalbrqu") re.allchar (str.to_re "pdytfhwzmczuevdinsst") )   (re.++ (str.to_re "tejucslwyivpatkfh") (re.* re.allchar) (str.to_re "wwbho") (re.* re.allchar) (str.to_re "hfekjotwnurahklxngfwgdivgvdsvlqiylnxsxxzrntlfojlludkicmvwqvyfswgkselnghgkstsqyhwmqkar") re.allchar (str.to_re "rtswlihlqcesxqpiytyho") (re.* re.allchar) (str.to_re "ndubjynqwlfpnr") (re.* re.allchar) (str.to_re "vaujdvizrsciglldm") re.allchar (str.to_re "p") re.allchar )  )))
(check-sat)
(exit)
